letting n_nurses=25
letting n_days=7
letting n_shift_types=4
letting max_covers=16
letting t_covers=87
letting covers=[3,16,0,0,3,15,0,0,12,2,0,0,3,0,1,0,8,0,1,0,14,3,0,0,1,5,0,0]
letting prefes=[2,2,4,3,4,4,3,4,1,3,2,2,2,2,4,3,2,2,4,3,2,2,4,3,2,2,4,3,4,2,1,3,4,4,1,2,1,1,2,2,4,2,1,3,4,2,1,3,4,2,1,3,4,2,1,3,2,2,1,4,1,4,3,2,4,1,2,1,2,2,1,4,2,2,1,4,2,2,1,4,2,2,1,4,2,2,1,4,1,4,3,4,1,3,2,2,2,2,1,4,2,2,1,4,2,2,1,4,2,2,1,4,2,1,1,3,1,4,1,2,4,1,1,2,2,1,1,3,2,1,1,3,2,1,1,3,2,1,1,3,4,2,1,3,1,1,3,2,1,3,2,2,4,2,1,3,4,2,1,3,4,2,1,3,4,2,1,3,2,1,1,3,1,4,1,2,4,3,1,2,2,1,1,3,2,1,1,3,2,1,1,3,2,1,1,3,2,2,4,3,4,4,3,2,4,1,2,1,2,2,4,3,2,2,4,3,2,2,4,3,2,2,4,3,4,2,1,3,1,4,3,2,4,3,2,2,4,2,1,3,4,2,1,3,4,2,1,3,4,2,1,3,2,2,1,3,1,4,1,2,4,3,2,1,2,2,1,3,2,2,1,3,2,2,1,3,2,2,1,3,2,2,1,4,1,4,3,2,1,3,2,2,2,2,1,4,2,2,1,4,2,2,1,4,2,2,1,4,2,2,4,3,1,4,3,4,4,3,1,2,2,2,4,3,2,2,4,3,2,2,4,3,2,2,4,3,2,1,1,3,3,4,3,4,4,3,1,2,2,1,1,3,2,1,1,3,2,1,1,3,2,1,1,3,2,2,1,4,1,1,3,2,4,3,2,2,2,2,1,4,2,2,1,4,2,2,1,4,2,2,1,4,2,2,1,3,1,1,3,2,4,3,2,2,2,2,1,3,2,2,1,3,2,2,1,3,2,2,1,3,2,2,1,3,1,4,3,2,4,3,2,2,2,2,1,3,2,2,1,3,2,2,1,3,2,2,1,3,2,2,1,4,1,4,3,2,4,1,2,2,2,2,1,4,2,2,1,4,2,2,1,4,2,2,1,4,2,2,1,3,1,4,3,2,4,3,2,2,2,2,1,3,2,2,1,3,2,2,1,3,2,2,1,3,4,2,1,3,1,4,3,2,4,3,2,1,4,2,1,3,4,2,1,3,4,2,1,3,4,2,1,3,2,1,4,3,1,1,3,2,4,3,2,2,2,1,4,3,2,1,4,3,2,1,4,3,2,1,4,3,2,2,4,3,4,4,3,2,4,3,2,2,2,2,4,3,2,2,4,3,2,2,4,3,2,2,4,3,2,1,1,3,1,4,1,2,4,3,1,2,2,1,1,3,2,1,1,3,2,1,1,3,2,1,1,3,2,2,1,3,1,4,3,2,4,3,2,1,2,2,1,3,2,2,1,3,2,2,1,3,2,2,1,3,4,2,1,3,1,4,3,4,4,3,2,2,4,2,1,3,4,2,1,3,4,2,1,3,4,2,1,3,2,2,1,3,1,1,3,2,4,3,2,2,2,2,1,3,2,2,1,3,2,2,1,3,2,2,1,3]
letting ub =  
